c uprop, v00.0, 
c reading from data/prog385.c.cnf
c done reading: 0.003215
p cnf 94 410
-54 -61 0
-54 -64 0
54 61 64 0
-56 61 64 0
-56 -61 -64 0
56 -61 64 0
56 61 -64 0
-53 54 0
-53 -70 0
53 -54 70 0
-54 -55 70 0
54 -55 -70 0
54 55 70 0
-54 55 -70 0
53 -57 0
-57 -59 0
-53 57 59 0
-53 59 -63 0
53 -59 -63 0
53 59 63 0
-53 -59 63 0
57 -66 0
-66 -68 0
-57 66 68 0
-57 68 -72 0
57 -68 -72 0
57 68 72 0
-57 -68 72 0
-58 66 0
-51 -58 0
51 58 -66 0
51 -66 -67 0
-51 66 -67 0
51 66 67 0
-51 -66 67 0
-50 58 0
-48 -50 0
48 50 -58 0
-47 48 -58 0
-47 -48 58 0
47 48 58 0
47 -48 -58 0
-46 50 0
-44 -46 0
44 46 -50 0
-43 44 -50 0
-43 -44 50 0
43 44 50 0
43 -44 -50 0
-42 64 0
-42 61 0
42 -61 -64 0
-41 -61 -64 0
-41 61 64 0
41 61 -64 0
41 -61 64 0
40 -64 -70 0
40 -42 -70 0
40 -42 -64 0
-40 64 70 0
-40 42 70 0
-40 42 64 0
-39 -40 70 0
-39 -40 64 0
-39 -40 42 0
39 40 -70 0
39 40 -64 0
39 40 -42 0
39 -42 -64 -70 0
-39 42 64 70 0
38 -59 -70 0
38 -40 -59 0
38 -40 -70 0
-38 59 70 0
-38 40 59 0
-38 40 70 0
-37 -38 59 0
-37 -38 70 0
-37 -38 40 0
37 38 -59 0
37 38 -70 0
37 38 -40 0
37 -40 -59 -70 0
-37 40 59 70 0
36 -59 -68 0
36 -38 -68 0
36 -38 -59 0
-36 59 68 0
-36 38 68 0
-36 38 59 0
-36 68 -73 0
-36 59 -73 0
-36 38 -73 0
36 -68 73 0
36 -59 73 0
36 -38 73 0
-38 -59 -68 73 0
38 59 68 -73 0
-51 -68 74 0
-36 -51 74 0
-36 -68 74 0
51 68 -74 0
36 51 -74 0
36 68 -74 0
51 -74 -75 0
68 -74 -75 0
36 -74 -75 0
-51 74 75 0
-68 74 75 0
-36 74 75 0
-36 -51 -68 75 0
36 51 68 -75 0
-48 -51 76 0
-48 -74 76 0
-51 -74 76 0
48 51 -76 0
48 74 -76 0
51 74 -76 0
48 -76 -77 0
51 -76 -77 0
74 -76 -77 0
-48 76 77 0
-51 76 77 0
-74 76 77 0
-48 -51 -74 77 0
48 51 74 -77 0
-44 -48 78 0
-44 -76 78 0
-48 -76 78 0
44 48 -78 0
44 76 -78 0
48 76 -78 0
44 -78 -79 0
48 -78 -79 0
76 -78 -79 0
-44 78 79 0
-48 78 79 0
-76 78 79 0
-44 -48 -76 79 0
44 48 76 -79 0
44 -80 0
78 -80 0
-44 -78 80 0
-44 -78 -81 0
44 78 -81 0
-44 78 81 0
44 -78 81 0
37 -82 0
61 -82 0
-37 -61 82 0
-37 -61 -83 0
37 61 -83 0
-37 61 83 0
37 -61 83 0
-64 -73 84 0
-73 -82 84 0
-64 -82 84 0
64 73 -84 0
73 82 -84 0
64 82 -84 0
73 -84 -85 0
64 -84 -85 0
82 -84 -85 0
-73 84 85 0
-64 84 85 0
-82 84 85 0
-64 -73 -82 85 0
64 73 82 -85 0
-70 -75 86 0
-75 -84 86 0
-70 -84 86 0
70 75 -86 0
75 84 -86 0
70 84 -86 0
-62 75 -86 0
-62 70 -86 0
-62 84 -86 0
62 -75 86 0
62 -70 86 0
62 -84 86 0
62 -70 -75 -84 0
-62 70 75 84 0
-59 65 -77 0
65 -77 -86 0
-59 65 -86 0
59 -65 77 0
-65 77 86 0
59 -65 86 0
-65 -71 77 0
59 -65 -71 0
-65 -71 86 0
65 71 -77 0
-59 65 71 0
65 71 -86 0
-59 71 -77 -86 0
59 -71 77 86 0
60 -68 -79 0
60 -65 -79 0
60 -65 -68 0
-60 68 79 0
-60 65 79 0
-60 65 68 0
-60 -69 79 0
-60 68 -69 0
-60 65 -69 0
60 69 -79 0
60 -68 69 0
60 -65 69 0
-65 -68 69 -79 0
65 68 -69 79 0
-51 52 -81 0
52 -60 -81 0
-51 52 -60 0
51 -52 81 0
-52 60 81 0
51 -52 60 0
-49 -52 81 0
-49 51 -52 0
-49 -52 60 0
49 52 -81 0
49 -51 52 0
49 52 -60 0
49 -51 -60 -81 0
-49 51 60 81 0
45 -48 -80 0
45 -52 -80 0
45 -48 -52 0
-45 48 80 0
-45 52 80 0
-45 48 52 0
-45 80 -87 0
-45 48 -87 0
-45 52 -87 0
45 -80 87 0
45 -48 87 0
45 -52 87 0
-48 -52 -80 87 0
48 52 80 -87 0
44 -88 0
45 -88 0
-44 -45 88 0
-44 -45 -89 0
44 45 -89 0
-44 45 89 0
44 -45 89 0
-61 -90 0
-41 -90 0
41 61 90 0
41 61 -91 0
-41 -61 -91 0
41 -61 91 0
-41 61 91 0
90 -92 0
-39 -92 0
39 -90 92 0
39 -90 -93 0
-39 90 -93 0
39 90 93 0
-39 -90 93 0
92 -94 0
-83 -94 0
83 -92 94 0
-35 83 -92 0
-35 -83 92 0
35 83 92 0
35 -83 -92 0
-34 94 0
-34 -85 0
34 85 -94 0
-33 85 -94 0
-33 -85 94 0
33 85 94 0
33 -85 -94 0
-32 34 0
-32 -62 0
32 -34 62 0
-31 -34 62 0
-31 34 -62 0
31 34 62 0
31 -34 -62 0
-30 32 0
-30 -71 0
30 -32 71 0
-29 -32 71 0
-29 32 -71 0
29 32 71 0
29 -32 -71 0
-28 30 0
-28 -69 0
28 -30 69 0
-27 -30 69 0
-27 30 -69 0
27 30 69 0
27 -30 -69 0
-26 28 0
-26 -49 0
26 -28 49 0
-25 -28 49 0
-25 28 -49 0
25 28 49 0
25 -28 -49 0
-24 26 0
-24 -87 0
24 -26 87 0
-23 -26 87 0
-23 26 -87 0
23 26 87 0
23 -26 -87 0
-22 24 0
-22 -89 0
22 -24 89 0
-21 -24 89 0
-21 24 -89 0
21 24 89 0
21 -24 -89 0
-20 22 0
-20 -88 0
20 -22 88 0
-19 -22 88 0
-19 22 -88 0
19 22 88 0
19 -22 -88 0
-17 18 0
-17 61 0
17 -18 -61 0
-18 -61 0
18 61 0
15 -16 -41 0
15 -16 -17 0
15 -17 -41 0
-15 16 41 0
-15 16 17 0
-15 17 41 0
15 -16 0
15 -41 0
15 -17 0
-16 -17 -41 0
13 -14 -39 0
13 -14 -15 0
13 -15 -39 0
-13 14 39 0
-13 14 15 0
-13 15 39 0
13 -14 0
13 -39 0
13 -15 0
-14 -15 -39 0
11 -12 -83 0
11 -12 -13 0
11 -13 -83 0
-11 12 83 0
-11 12 13 0
-11 13 83 0
-11 12 0
-11 83 0
-11 13 0
12 13 83 0
9 -10 -85 0
9 -10 -11 0
9 -11 -85 0
-9 10 85 0
-9 10 11 0
-9 11 85 0
9 -10 0
9 -85 0
9 -11 0
-10 -11 -85 0
7 -8 -62 0
7 -8 -9 0
7 -9 -62 0
-7 8 62 0
-7 8 9 0
-7 9 62 0
7 -8 0
7 -62 0
7 -9 0
-8 -9 -62 0
5 -6 -71 0
5 -6 -7 0
5 -7 -71 0
-5 6 71 0
-5 6 7 0
-5 7 71 0
5 -6 0
5 -71 0
5 -7 0
-6 -7 -71 0
-4 69 0
-4 5 0
4 -5 -69 0
5 -69 0
-5 69 0
-3 49 0
-3 4 0
3 -4 -49 0
4 -49 0
-4 49 0
-2 87 0
-2 3 0
2 -3 -87 0
3 -87 0
-3 87 0
-1 89 0
-1 2 0
1 -2 -89 0
2 -89 0
-2 89 0
-1 -88 0
1 -88 0
-1 88 0
